NAME      name
ROWS
 N  obj
 E  e1
 E  e2
 E  e3
COLUMNS
    x0        e1                  1
    x0        e2                 -1
    x1        e1                  1
    x1        e3                 -1
    x2        e2                  1
    x2        e3                 -1
    x3        e2                  1
    x4        e3                  1
RHS
    rhs       e1                  4
    rhs       e2                  0
    rhs       e3                  0
BOUNDS
 LO bnd       x0                  0
 UP bnd       x0                  4
 LO bnd       x1                  0
 UP bnd       x1                  2
 LO bnd       x2                  0
 UP bnd       x2                  2
 LO bnd       x3                  0
 UP bnd       x3                  3
 LO bnd       x4                  0
 UP bnd       x4                  5
ENDATA
